p cnf 14 64
-1 5 12 0
-1 4 -9 0
-1 4 13 0
-8 -11 -14 0
3 4 8 0
1 -4 -8 0
2 8 -12 0
-6 10 13 0
3 6 -12 0
11 -12 13 0
-9 -11 -14 0
3 11 -12 0
-5 -6 12 0
1 -7 11 0
-2 -8 13 0
-1 4 -12 0
5 11 -14 0
4 -7 -14 0
2 7 -13 0
-3 -4 -10 0
6 -10 -12 0
-5 8 -9 0
5 -9 10 0
-3 -12 13 0
2 5 -9 0
-4 -7 9 0
4 5 -11 0
4 -8 9 0
-10 -12 13 0
3 -10 14 0
-3 -11 -13 0
-1 8 9 0
8 -9 11 0
12 -13 -14 0
3 5 -12 0
-3 -7 14 0
-2 10 -13 0
4 6 7 0
-2 -4 5 0
-1 5 8 0
-1 4 -8 0
-6 -8 -12 0
6 -9 11 0
1 -2 -4 0
7 -9 -14 0
4 6 8 0
-4 8 12 0
4 -5 -13 0
6 -8 -9 0
-2 9 -11 0
-1 -3 -9 0
5 10 12 0
2 12 -13 0
3 10 12 0
-5 -8 9 0
-5 -9 -10 0
3 -4 -13 0
-7 9 11 0
-1 2 6 0
-7 8 14 0
3 6 -10 0
1 2 -4 0
4 8 12 0
2 -9 11 0
